30 146676
20923 592
14668 1414
15585 3145
1781 435
27053 7866
716 237
7210 2562
10290 3705
15211 6837
11052 6710
1197 890
18325 13671
8390 7591
10828 11414
7901 12586
15313 25809
4873 8518
2308 4413
2897 5796
5395 11547
2188 4746
8127 20327
4538 14991
1310 5596
3281 14437
1516 9756
4247 28825
648 11690
1094 30592
42 6100